
Gurobi 9.1.1 (linux64, gurobi_cl) logging started Sat Jan 29 15:40:25 2022


Gurobi 9.1.1 (linux64, gurobi_cl) logging started Sat Jan 29 15:40:25 2022


Gurobi 9.1.1 (linux64, gurobi_cl) logging started Sat Jan 29 15:40:25 2022


Gurobi 9.1.1 (linux64, gurobi_cl) logging started Sat Jan 29 15:40:25 2022


Gurobi 9.1.1 (linux64, gurobi_cl) logging started Sat Jan 29 15:41:39 2022


Gurobi 9.1.1 (linux64, gurobi_cl) logging started Sat Jan 29 15:41:39 2022


Gurobi 9.1.1 (linux64, gurobi_cl) logging started Sat Jan 29 15:41:39 2022


Gurobi 9.1.1 (linux64, gurobi_cl) logging started Sat Jan 29 15:42:44 2022


Gurobi 9.1.1 (linux64, gurobi_cl) logging started Sat Jan 29 15:42:44 2022


Gurobi 9.1.1 (linux64, gurobi_cl) logging started Sat Jan 29 15:42:44 2022


Gurobi 9.1.1 (linux64, gurobi_cl) logging started Sat Jan 29 15:54:58 2022


Gurobi 9.1.1 (linux64, gurobi_cl) logging started Sat Jan 29 15:54:58 2022


Gurobi 9.1.1 (linux64, gurobi_cl) logging started Sat Jan 29 15:54:58 2022


Gurobi 9.1.1 (linux64, gurobi_cl) logging started Sat Jan 29 15:55:00 2022


Gurobi 9.1.1 (linux64, gurobi_cl) logging started Sat Jan 29 15:55:00 2022


Gurobi 9.1.1 (linux64, gurobi_cl) logging started Sat Jan 29 15:55:00 2022


Gurobi 9.1.1 (linux64, gurobi_cl) logging started Sat Jan 29 15:55:00 2022


Gurobi 9.1.1 (linux64, gurobi_cl) logging started Sat Jan 29 15:55:00 2022


Gurobi 9.1.1 (linux64, gurobi_cl) logging started Sat Jan 29 15:55:00 2022


Gurobi 9.1.1 (linux64, gurobi_cl) logging started Sat Jan 29 15:55:01 2022


Gurobi 9.1.1 (linux64, gurobi_cl) logging started Sat Jan 29 15:55:01 2022


Gurobi 9.1.1 (linux64, gurobi_cl) logging started Sat Jan 29 15:55:01 2022

